3482.69
14 14 26 61 83 58 14 61 58 14 83 7 61 83 7 55 58 55 83 26 83 83 83 54 14 83 58 26 54 58 83 83 7 83 14 54 83 83 61 83 14 83 58 83 14 83 58 7 7 83 7 83 61 83 55 58 58 7 26 58 7 54 58 83 7 7 7 83 7 54 7 14 83 83 13 14 14 14 83 7 26 83 13 26 58 14 26 58 54 61 83 26 58 83 83 83 58 7 7 7 
